NAME          
ROWS
 N  OBJ
 L  c1
 L  c2
COLUMNS
    MARKER    'MARKER'                 'INTORG'
    x[1]      c1        805
    x[1]      c2        816
    x[1]      OBJ       -214
    x[2]      c1        481
    x[2]      c2        731
    x[2]      OBJ       -150
    x[3]      c1        901
    x[3]      c2        351
    x[3]      OBJ       -335
    x[4]      c1        823
    x[4]      c2        387
    x[4]      OBJ       -956
    x[5]      c1        717
    x[5]      c2        671
    x[5]      OBJ       -617
    x[6]      c1        126
    x[6]      c2        389
    x[6]      OBJ       -532
    x[7]      c1        330
    x[7]      c2        216
    x[7]      OBJ       -556
    x[8]      c1        493
    x[8]      c2        5
    x[8]      OBJ       -253
    x[9]      c1        956
    x[9]      c2        539
    x[9]      OBJ       -163
    x[10]     c1        567
    x[10]     c2        104
    x[10]     OBJ       -407
RHS
    rhs       c1        3100
    rhs       c2        2104
RANGES
BOUNDS
 LO bounds    x[1]      0
 PL bounds    x[1]
 LO bounds    x[2]      0
 PL bounds    x[2]
 LO bounds    x[3]      0
 PL bounds    x[3]
 LO bounds    x[4]      0
 PL bounds    x[4]
 LO bounds    x[5]      0
 PL bounds    x[5]
 LO bounds    x[6]      0
 PL bounds    x[6]
 LO bounds    x[7]      0
 PL bounds    x[7]
 LO bounds    x[8]      0
 PL bounds    x[8]
 LO bounds    x[9]      0
 PL bounds    x[9]
 LO bounds    x[10]     0
 PL bounds    x[10]
ENDATA
